p tw 36 88
0 1
0 8
0 9
1 20
1 25
1 26
2 3
2 10
2 11
2 12
3 18
3 19
4 5
4 30
4 31
4 32
5 6
5 7
6 7
6 32
7 24
7 27
7 30
7 35
8 9
8 17
8 26
8 27
8 28
9 20
10 11
10 12
10 29
11 12
11 18
11 33
11 34
11 35
12 19
13 14
13 15
13 16
13 21
14 15
14 16
14 23
14 28
14 29
14 33
15 16
15 22
16 17
17 26
17 27
17 28
18 19
18 33
18 34
18 35
20 25
20 26
21 22
21 23
22 23
23 28
23 29
23 33
24 25
24 27
24 30
24 35
25 26
26 27
26 28
27 28
27 30
27 35
28 29
28 33
29 33
30 31
30 32
30 35
31 32
31 34
33 34
33 35
34 35
